Route #1: 6 157 9 48 68 162 62 128 85 156 14 96 17 15 140 119 134
Route #2: 124 87 42 54 23 139 154 132 60 113 71 143 130 3 79 121 152
Route #3: 52 115 97 148 116 8 114 136 37 84 146 51 10 72 32 53 112 95 158
Route #4: 80 105 36 110 65 34 164 81 45 98 150 135 100 102 108 27 101 18 144
Route #5: 137 73 22 83 69 155 56 58 61 127 126 47 118 93 25 7 89 67
Route #6: 123 35 26 165 78 41 74 33 106 166 94 90 161 91 49 147 20 138
Route #7: 125 66 43 117 107 64 104 12 57 77 13 1 122 111 88 163 145 129
Route #8: 76 142 19 50 40 31 24 133 70 141 39 11 82 120 59 75 160 149 21
Route #9: 46 159 38 151 153 2 29 28 16 109 4 131 55 92 30 44
Route #10: 99 63 103 86 5
